0 7729901
325 7509101
650 7432578
975 7378748
1300 7339371
1625 7311901
1950 7291993
2275 7256633
2600 7245141
2925 7223133
3250 7215297
3575 7207848
3900 7202505
4225 7198009
4550 7194462
4875 7192616
5200 7190882
5525 7189454
5850 7189426
7475 7188761
7800 7188600
